This is Ipopt version 3.13.4, running with linear solver mumps.
NOTE: Other linear solvers might be more efficient (see Ipopt documentation).

Number of nonzeros in equality constraint Jacobian...:     1092
Number of nonzeros in inequality constraint Jacobian.:        0
Number of nonzeros in Lagrangian Hessian.............:        0

Total number of variables............................:       78
                     variables with only lower bounds:        1
                variables with lower and upper bounds:       73
                     variables with only upper bounds:        0
Total number of equality constraints.................:       14
Total number of inequality constraints...............:        0
        inequality constraints with only lower bounds:        0
   inequality constraints with lower and upper bounds:        0
        inequality constraints with only upper bounds:        0

iter    objective    inf_pr   inf_du lg(mu)  ||d||  lg(rg) alpha_du alpha_pr  ls
   0  1.0000000e+00 1.92e-01 1.00e+00   0.0 0.00e+00    -  0.00e+00 0.00e+00   0
   1  1.0000000e+00 1.77e-01 1.34e+02  -0.9 8.47e-01    -  4.96e-01 5.05e-02f  1
   2  1.0000000e+00 1.31e-01 5.37e+01   0.1 1.84e+00    -  4.50e-01 8.20e-02f  1
   3  1.0000000e+00 5.26e-02 1.04e+16  -1.1 2.33e-01    -  9.54e-01 1.00e+00f  1
   4  1.0000000e+00 1.83e-01 1.08e+19  -1.7 1.16e+00    -  8.01e-01 1.00e+00h  1
   5  1.0000000e+00 3.90e+00 4.41e+20  -1.5 2.58e+01    -  2.31e-01 2.34e-01H  1
   6  1.0000000e+00 3.88e+00 4.58e+20  -1.5 1.73e+01    -  5.22e-02 5.14e-03h  4
